HUN,8,6,60
0,12,1,89,5,45,3,7,2,57,4,21
3,81,1,95,5,73,0,97,4,76,2,65
0,63,5,96,4,81,2,85,1,6,3,81
4,92,5,14,2,65,0,96,3,77,1,91
0,68,4,79,5,38,3,88,2,72,1,38
2,13,4,19,3,45,1,38,0,16,5,57
2,42,1,73,3,70,4,7,0,39,5,34
4,44,0,55,1,41,5,63,2,7,3,84
